db/data/8861762618014288336244202622923911196.z3.out
-------------------
2500.127888259
